p gcnf 48 92 12
{0} -21 15 22 0
{0} -18 15 22 14 0
{0} -18 -21 22 0
{0} -22 13 0
{0} -19 0
{0} -22 -19 14 0
{0} -20 14 0
{0} -22 -20 0
{0} -16 13 0
{0} -22 -16 14 0
{0} -17 14 9 0
{0} -22 -17 0
{0} -16 -19 14 0
{0} -22 -16 -19 0
{0} -16 -20 0
{0} -22 -16 0
{0} -17 -19 0
{0} -22 -17 -19 0
{0} -17 -20 0
{0} -22 -17 -20 0
{0} -26 21 27 0
{0} 27 0
{0} -24 27 0
{0} -27 19 0
{0} -25 19 0
{0} -27 -25 20 0
{0} -23 19 0
{0} -27 -23 20 33 0
{0} -23 -25 20 0
{0} -27 -23 -25 0
{0} -12 26 30 16 0
{0} -29 26 30 0
{0} -12 30 0
{0} -30 25 0
{0} -28 25 0
{0} -30 -28 0
{0} 29 31 0
{0} -10 29 44 0
{0} -10 -11 0
{0} -31 28 0
{0} -9 24 34 0
{0} -33 24 34 23 0
{0} -33 -9 20 0
{0} -34 23 0
{0} -32 23 0
{0} -34 18 0
{0} -8 33 35 0
{0} 33 35 0
{0} -7 -8 35 0
{0} -35 32 0
{0} -39 18 40 0
{0} -37 18 0
{0} -37 40 0
{0} -40 16 0
{0} -38 16 0
{0} -40 -38 17 0
{0} -36 16 0
{0} -36 17 0
{0} -38 17 0
{0} -36 -38 48 0
{0} -6 39 43 0
{0} -42 39 43 0
{0} -42 43 0
{0} -43 38 0
{0} -41 38 0
{0} -43 0
{0} -5 42 44 0
{0} -4 42 44 0
{0} -4 -5 44 0
{0} -44 41 27 0
{0} -3 37 0
{0} -46 37 47 27 0
{0} -46 -3 47 0
{0} -47 36 0
{0} -45 36 0
{0} -47 -45 0
{0} -2 46 48 0
{0} -1 46 48 0
{0} -1 -2 48 0
{0} -48 0
{1} 1 0
{2} 2 0
{3} 3 0
{4} 4 0
{5} 5 0
{6} 6 0
{7} 7 0
{8} 8 0
{9} 9 0
{10} 10 0
{11} 11 0
{12} 12 0
